n_res = 4;
rcap = [43, 39, 49, 50];
rtype = [1, 1, 2, 2];
n_tasks = 30;
modes = [ {1, 2, 3}, {4, 5, 6}, {7, 8, 9}, {10, 11, 12}, {13, 14, 15}, {16, 17, 18}, {19, 20, 21}, {22, 23, 24}, {25, 26, 27}, {28, 29, 30}, {31, 32, 33}, {34, 35, 36}, {37, 38, 39}, {40, 41, 42}, {43, 44, 45}, {46, 47, 48}, {49, 50, 51}, {52, 53, 54}, {55, 56, 57}, {58, 59, 60}, {61, 62, 63}, {64, 65, 66}, {67, 68, 69}, {70, 71, 72}, {73, 74, 75}, {76, 77, 78}, {79, 80, 81}, {82, 83, 84}, {85, 86, 87}, {88, 89, 90} ];
succ = [ {4, 5, 6}, {8, 9, 14}, {21, 28}, {7, 10, 22}, {21}, {16, 20, 27}, {9, 18}, {11, 17}, {13, 16, 24}, {15, 23, 25}, {12, 15, 23}, {22}, {17, 23, 26}, {17, 20, 28}, {19}, {25}, {30}, {24, 25}, {24, 27}, {21, 22}, {30}, {26, 29}, {29}, {26}, {29}, {30}, {28}, {}, {}, {} ];
n_opt = 90;
dur = [1, 5, 10, 2, 6, 8, 4, 5, 6, 4, 5, 10, 1, 5, 10, 2, 2, 7, 2, 4, 6, 1, 6, 7, 1, 4, 8, 2, 8, 9, 5, 7, 10, 4, 7, 10, 5, 7, 7, 4, 5, 10, 3, 5, 10, 1, 2, 6, 1, 4, 7, 2, 9, 10, 3, 4, 5, 1, 1, 4, 3, 5, 8, 4, 5, 7, 3, 10, 10, 2, 3, 7, 1, 6, 7, 3, 4, 8, 2, 9, 10, 2, 5, 5, 4, 6, 7, 6, 7, 10];
rreq = [|  9,  8,  8,  5,  5,  2,  8,  5,  2,  9,  7,  6,  7,  7,  6,  6,  5,  4,  3,  3,  3,  4,  4,  3,  6,  6,  6,  5,  4,  4,  8,  5,  4,  9,  7,  1, 10,  8,  5,  5,  4,  1,  4,  4,  1,  5,  5,  4,  6,  5,  4,  8,  7,  7,  9,  6,  2,  4,  4,  1,  7,  6,  6,  9,  6,  2,  8,  5,  4,  5,  5,  3,  6,  4,  3,  6,  4,  4,  1,  1,  1,  9,  8,  8,  9,  6,  3,  9,  5,  2
        |  7,  4,  3,  8,  6,  5,  5,  4,  2,  6,  5,  4,  7,  4,  3,  9,  9,  8,  8,  6,  3,  6,  6,  6,  4,  3,  3,  4,  4,  4,  2,  2,  1,  5,  4,  3,  9,  5,  3,  9,  5,  3,  7,  4,  2,  7,  6,  4,  8,  8,  8,  3,  3,  3,  7,  5,  4,  7,  7,  7,  8,  8,  5,  3,  2,  2,  4,  4,  4,  3,  2,  1,  6,  5,  3,  7,  5,  2,  8,  8,  8,  9,  6,  8,  6,  5,  3,  9,  9,  8
        |  0,  5,  0,  0,  0,  4,  0,  0,  0,  4,  2,  1,  2,  0,  0,  0,  8,  8,  8,  0,  3, 10,  6,  5,  0,  0,  0,  0,  0,  3,  0,  0,  7,  0,  8,  5,  7,  4,  0,  0,  0,  8, 10,  0,  7,  0,  0,  0,  0,  6,  6,  5,  5,  0,  0,  0,  7,  0,  1,  0,  4,  3,  2,  0,  0,  2,  6,  5,  0,  9,  9,  8,  4,  0,  4,  7,  0,  0,  0,  0,  0,  0,  5,  0,  3,  3,  0,  0,  5,  3
        |  9,  0,  8,  8,  4,  0,  6,  3,  3,  0,  0,  0,  0, 10,  5,  5,  0,  0,  0,  5,  0,  0,  0,  0,  5,  3,  2,  4,  3,  0,  3,  3,  0,  3,  0,  0,  0,  0,  2,  6,  2,  0,  0,  9,  0,  9,  8,  7,  6,  0,  0,  0,  0,  3,  9,  7,  0,  2,  0,  2,  0,  0,  0,  5,  4,  0,  0,  0,  6,  0,  0,  0,  0,  4,  0,  0,  8,  4,  7,  6,  4,  9,  0,  5,  0,  0,  5,  3,  0,  0 |];
